(declare-fun temp69742_1 () (_ BitVec 64))
(declare-fun temp69742_2 () (_ BitVec 64))
(declare-fun var77740 () (_ BitVec 64))
(declare-fun k!0 () Bool)
(declare-fun ARGNAME_input_1_NAMEEND_DIM () (_ BitVec 64))
(declare-fun ARGNAME_data_format_NAMEEND_STRFMT () (_ BitVec 64))
(declare-fun temp69742_3 () (_ BitVec 64))
(declare-fun ARGNAME_input_2_NAMEEND_DIM () (_ BitVec 64))
(declare-fun var77770 () (_ BitVec 64))
(declare-fun temp69742_4 () (_ BitVec 64))
(declare-fun temp69742_5 () (_ BitVec 64))
(declare-fun ARGNAME_input_1_NAMEEND_DIMSIZE
             ()
             (Array (_ BitVec 64) (_ BitVec 64)))
(declare-fun temp69742_6 () (_ BitVec 64))
(declare-fun temp69742_7 () (_ BitVec 64))
(declare-fun temp69742_8 () (_ BitVec 64))
(declare-fun temp69742_9 () (_ BitVec 64))
(declare-fun temp69742_10 () (_ BitVec 64))
(declare-fun temp69742_11 () (_ BitVec 64))
(declare-fun temp69742_12 () (_ BitVec 64))
(declare-fun temp69742_13 () (_ BitVec 64))
(declare-fun temp69742_14 () (_ BitVec 64))
(declare-fun temp69742_15 () (_ BitVec 64))
(declare-fun temp69742_16 () (_ BitVec 64))
(declare-fun temp69742_17 () (_ BitVec 64))
(declare-fun temp69742_18 () (_ BitVec 64))
(declare-fun var77799 () (_ BitVec 64))
(declare-fun temp69742_19 () (_ BitVec 64))
(declare-fun ARGNAME_input_2_NAMEEND_DIMSIZE
             ()
             (Array (_ BitVec 64) (_ BitVec 64)))
(declare-fun temp69742_20 () (_ BitVec 64))
(declare-fun temp69742_21 () (_ BitVec 64))
(declare-fun temp69742_22 () (_ BitVec 64))
(declare-fun temp69742_23 () (_ BitVec 64))
(declare-fun temp69742_24 () (_ BitVec 64))
(declare-fun temp69742_25 () (_ BitVec 64))
(declare-fun temp69742_26 () (_ BitVec 64))
(declare-fun temp69742_27 () (_ BitVec 64))
(declare-fun temp69742_28 () (_ BitVec 64))
(declare-fun temp69742_29 () (_ BitVec 64))
(declare-fun temp69742_30 () (_ BitVec 64))
(declare-fun temp69742_31 () (_ BitVec 64))
(declare-fun temp69742_32 () (_ BitVec 64))
(declare-fun var77832 () (_ BitVec 64))
(declare-fun temp69742_33 () (_ BitVec 64))
(declare-fun temp69742_34 () (_ BitVec 64))
(declare-fun var77833 () (_ BitVec 64))
(declare-fun var77834 () (_ BitVec 64))
(declare-fun temp69742_35 () (_ BitVec 64))
(declare-fun temp69742_36 () (_ BitVec 64))
(declare-fun var275510 () (_ BitVec 64))
(declare-fun temp69742_37 () (_ BitVec 64))
(declare-fun var275528 () (_ BitVec 64))
(declare-fun temp69742_38 () (_ BitVec 64))
(declare-fun temp69742_39 () (_ BitVec 64))
(declare-fun var406582 () (_ BitVec 64))
(declare-fun temp69742_40 () (_ BitVec 64))
(declare-fun var406600 () (_ BitVec 64))
(declare-fun temp69742_41 () (_ BitVec 64))
(declare-fun temp69742_42 () (_ BitVec 64))
(declare-fun var537654 () (_ BitVec 64))
(declare-fun temp69742_43 () (_ BitVec 64))
(declare-fun var537672 () (_ BitVec 64))
(declare-fun temp69742_44 () (_ BitVec 64))
(declare-fun temp69742_46 () (_ BitVec 64))
(declare-fun temp69742_45 () (_ BitVec 64))
(declare-fun temp69742_48 () (_ BitVec 64))
(declare-fun temp69742_47 () (_ BitVec 64))
(declare-fun temp69742_50 () (_ BitVec 64))
(declare-fun temp69742_49 () (_ BitVec 64))
(declare-fun temp69742_52 () (_ BitVec 64))
(declare-fun temp69742_51 () (_ BitVec 64))
(declare-fun temp69742_53 () (_ BitVec 64))
(declare-fun var795723 () (_ BitVec 64))
(declare-fun var795702 () (_ BitVec 64))
(declare-fun var730134 () (_ BitVec 64))
(declare-fun temp69742_54 () (_ BitVec 64))
(declare-fun temp69742_55 () (_ BitVec 64))
(declare-fun var861259 () (_ BitVec 64))
(declare-fun var861238 () (_ BitVec 64))
(declare-fun var730144 () (_ BitVec 64))
(declare-fun temp69742_56 () (_ BitVec 64))
(declare-fun temp69742_57 () (_ BitVec 64))
(declare-fun var926795 () (_ BitVec 64))
(declare-fun var926774 () (_ BitVec 64))
(declare-fun var730147 () (_ BitVec 64))
(declare-fun temp69742_58 () (_ BitVec 64))
(declare-fun temp69742_59 () (_ BitVec 64))
(declare-fun var1123378 () (_ BitVec 64))
(declare-fun temp69742_60 () (_ BitVec 64))
(declare-fun var1188914 () (_ BitVec 64))
(declare-fun temp69742_61 () (_ BitVec 64))
(declare-fun var1254450 () (_ BitVec 64))
(declare-fun temp69742_62 () (_ BitVec 64))
(declare-fun var78184 () (_ BitVec 64))
(declare-fun temp69742_64 () (_ BitVec 64))
(declare-fun temp69742_63 () (_ BitVec 64))
(declare-fun temp69742_66 () (_ BitVec 64))
(declare-fun temp69742_65 () (_ BitVec 64))
(declare-fun temp69742_67 () (_ BitVec 64))
(declare-fun var78544 () (_ BitVec 64))
(declare-fun temp69742_68 () (_ BitVec 64))
(declare-fun var78545 () (_ BitVec 64))
(assert (or (= ARGNAME_data_format_NAMEEND_STRFMT #x0000000000000000)
    (= ARGNAME_data_format_NAMEEND_STRFMT #x0000000000000001)
    (= ARGNAME_data_format_NAMEEND_STRFMT #x0000000000000002)
    (= ARGNAME_data_format_NAMEEND_STRFMT #x0000000000000003)
    (= ARGNAME_data_format_NAMEEND_STRFMT #x0000000000000004)
    (= ARGNAME_data_format_NAMEEND_STRFMT #x0000000000000005)))
(assert (= temp69742_1 #x0000000000000005))
(assert (= var77740
   (ite (= ARGNAME_input_1_NAMEEND_DIM temp69742_1)
        #x0000000000000001
        #x0000000000000000)))
(assert (= temp69742_2 #x0000000000000001))
(assert (= var77740 temp69742_2))
(assert (= temp69742_3 #x0000000000000005))
(assert (= var77770
   (ite (= ARGNAME_input_2_NAMEEND_DIM temp69742_3)
        #x0000000000000001
        #x0000000000000000)))
(assert (= temp69742_4 #x0000000000000001))
(assert (= var77770 temp69742_4))
(assert (= temp69742_5 #x0000000000000000))
(assert (= temp69742_6 (select ARGNAME_input_1_NAMEEND_DIMSIZE temp69742_5)))
(assert (= temp69742_7 #x0000000000000001))
(assert (= temp69742_8 (select ARGNAME_input_1_NAMEEND_DIMSIZE temp69742_7)))
(assert (= temp69742_9 #x0000000000000002))
(assert (= temp69742_10 (select ARGNAME_input_1_NAMEEND_DIMSIZE temp69742_9)))
(assert (= temp69742_11 #x0000000000000003))
(assert (= temp69742_12 (select ARGNAME_input_1_NAMEEND_DIMSIZE temp69742_11)))
(assert (= temp69742_13 #x0000000000000004))
(assert (= temp69742_14 (select ARGNAME_input_1_NAMEEND_DIMSIZE temp69742_13)))
(assert (= temp69742_15 #x0000000000000005))
(assert (= temp69742_16 (select ARGNAME_input_1_NAMEEND_DIMSIZE temp69742_15)))
(assert (= temp69742_17 #x0000000000000003))
(assert (= temp69742_18 (select ARGNAME_input_1_NAMEEND_DIMSIZE temp69742_17)))
(assert (= var77799 temp69742_18))
(assert (= temp69742_19 #x0000000000000000))
(assert (= temp69742_20 (select ARGNAME_input_2_NAMEEND_DIMSIZE temp69742_19)))
(assert (= temp69742_21 #x0000000000000001))
(assert (= temp69742_22 (select ARGNAME_input_2_NAMEEND_DIMSIZE temp69742_21)))
(assert (= temp69742_23 #x0000000000000002))
(assert (= temp69742_24 (select ARGNAME_input_2_NAMEEND_DIMSIZE temp69742_23)))
(assert (= temp69742_25 #x0000000000000003))
(assert (= temp69742_26 (select ARGNAME_input_2_NAMEEND_DIMSIZE temp69742_25)))
(assert (= temp69742_27 #x0000000000000004))
(assert (= temp69742_28 (select ARGNAME_input_2_NAMEEND_DIMSIZE temp69742_27)))
(assert (= temp69742_29 #x0000000000000005))
(assert (= temp69742_30 (select ARGNAME_input_2_NAMEEND_DIMSIZE temp69742_29)))
(assert (= temp69742_31 #x0000000000000004))
(assert (= temp69742_32 (select ARGNAME_input_2_NAMEEND_DIMSIZE temp69742_31)))
(assert (= var77832 temp69742_32))
(assert (= temp69742_33 #x0000000000000004))
(assert (= temp69742_34 (select ARGNAME_input_1_NAMEEND_DIMSIZE temp69742_33)))
(assert (= var77833 temp69742_34))
(assert (= var77834 (ite (= var77832 var77833) #x0000000000000001 #x0000000000000000)))
(assert (= temp69742_35 #x0000000000000001))
(assert (= var77834 temp69742_35))
(assert (= temp69742_36 #x0000000000000001))
(assert (= var275510 temp69742_36))
(assert (= temp69742_37 #x0000000000000001))
(assert (= var275528
   (ite (bvslt var275510 temp69742_37) #x0000000000000001 #x0000000000000000)))
(assert (= temp69742_38 #x0000000000000000))
(assert (= var275528 temp69742_38))
(assert (= temp69742_39 #x0000000000000001))
(assert (= var406582 temp69742_39))
(assert (= temp69742_40 #x0000000000000001))
(assert (= var406600
   (ite (bvslt var406582 temp69742_40) #x0000000000000001 #x0000000000000000)))
(assert (= temp69742_41 #x0000000000000000))
(assert (= var406600 temp69742_41))
(assert (= temp69742_42 #x0000000000000001))
(assert (= var537654 temp69742_42))
(assert (= temp69742_43 #x0000000000000001))
(assert (= var537672
   (ite (bvslt var537654 temp69742_43) #x0000000000000001 #x0000000000000000)))
(assert (= temp69742_44 #x0000000000000000))
(assert (= var537672 temp69742_44))
(assert (= temp69742_46 #x0000000000000000))
(assert (= temp69742_45 temp69742_46))
(assert (= temp69742_48 #x00000000000000ff))
(assert (= temp69742_47 temp69742_48))
(assert (= temp69742_50 #x00000000000000ff))
(assert (= temp69742_49 temp69742_50))
(assert (= temp69742_52 #x00000000000000ff))
(assert (= temp69742_51 temp69742_52))
(assert (= temp69742_53 #x0000000000000000))
(assert (= var795723 temp69742_53))
(assert (= var795702 var795723))
(assert (= var730134 var795702))
(assert (= temp69742_54 #x0000000000000000))
(assert (= var730134 temp69742_54))
(assert (= temp69742_55 #x0000000000000000))
(assert (= var861259 temp69742_55))
(assert (= var861238 var861259))
(assert (= var730144 var861238))
(assert (= temp69742_56 #x0000000000000000))
(assert (= var730144 temp69742_56))
(assert (= temp69742_57 #x0000000000000000))
(assert (= var926795 temp69742_57))
(assert (= var926774 var926795))
(assert (= var730147 var926774))
(assert (= temp69742_58 #x0000000000000000))
(assert (= var730147 temp69742_58))
(assert (= temp69742_59 #x0000000000008000))
(assert (= var1123378 temp69742_59))
(assert (= temp69742_60 #x0000000000040000))
(assert (= var1188914 temp69742_60))
(assert (= temp69742_61 #x0000000000200000))
(assert (= var1254450 temp69742_61))
(assert (= temp69742_62 #x0000000000000001))
(assert (= var78184 temp69742_62))
(assert (= temp69742_64 #x0000000000000001))
(assert (= temp69742_63 temp69742_64))
(assert (= temp69742_66 #x0000000000000001))
(assert (= temp69742_65 temp69742_66))
(assert (= temp69742_67 #x0000000000000000))
(assert (= var78544 temp69742_67))
(assert (= temp69742_68 #x0000000000000001))
(assert (= var78545 (bvadd var78544 temp69742_68)))
(model-add temp69742_1 () (_ BitVec 64) #x0000000000000005)
(model-add temp69742_2 () (_ BitVec 64) #x0000000000000001)
(model-add var77740 () (_ BitVec 64) #x0000000000000001)
(model-del k!0)
(model-add ARGNAME_input_1_NAMEEND_DIM
           ()
           (_ BitVec 64)
           (ite k!0 #x0000000000000005 (bvnot #x0000000000000005)))

